p cnf 20 16
-1 -2 -3 7 -4 -5 8 17 0 
-4 -2 -5 8 -3 7 18 0 
-4 -2 -6 -5 8 18 0 
-4 -2 -3 7 17 0 
-5 8 -7 3 18 0 
-8 5 17 0 
-9 10 15 17 0 
-7 3 19 0 
-10 9 15 18 0 
-11 -5 8 -12 19 0 
-3 7 18 0 
-13 19 0 
-5 8 18 0 
-14 -15 9 10 -6 -1 -2 17 0 
-5 8 17 0 
-16 20 0 
